\ LP format - for model browsing. Use MPS format to capture full model detail.
\ Signature: 0x1c95757191f79f70
Maximize
  8 c + 11 t + 15 s
Subject To
 R0: 2 c + 2 t + 2 s <= 24
 R1: c + 2 t + 3 s <= 18
Bounds
End
